<?xml version = "1.0" standalone="yes"?>
<!-- This file has been generated by DOcplex version 2.23.222  -->
<CPLEXSolution version="1.0">
 <header
   problemName="CVRP"
   objectiveValue="25745.1"
  />
 <variables>
  <variable name="x_0_3" index="2" value="1.00000"/>
  <variable name="x_0_5" index="4" value="1.00000"/>
  <variable name="x_0_8" index="7" value="1.00000"/>
  <variable name="x_0_9" index="8" value="1.00000"/>
  <variable name="x_0_11" index="10" value="1.00000"/>
  <variable name="x_0_13" index="12" value="1.00000"/>
  <variable name="x_0_14" index="13" value="1.00000"/>
  <variable name="x_0_15" index="14" value="1.00000"/>
  <variable name="x_0_17" index="16" value="1.00000"/>
  <variable name="x_0_18" index="17" value="1.00000"/>
  <variable name="x_0_19" index="18" value="1.00000"/>
  <variable name="x_0_22" index="21" value="1.00000"/>
  <variable name="x_0_23" index="22" value="1.00000"/>
  <variable name="x_0_24" index="23" value="1.00000"/>
  <variable name="x_0_26" index="25" value="1.00000"/>
  <variable name="x_0_29" index="28" value="1.00000"/>
  <variable name="x_0_30" index="29" value="1.00000"/>
  <variable name="x_1_20" index="49" value="1.00000"/>
  <variable name="x_2_0" index="60" value="1.00000"/>
  <variable name="x_3_2" index="92" value="1.00000"/>
  <variable name="x_4_0" index="120" value="1.00000"/>
  <variable name="x_5_0" index="150" value="1.00000"/>
  <variable name="x_6_21" index="200" value="1.00000"/>
  <variable name="x_7_12" index="221" value="1.00000"/>
  <variable name="x_8_27" index="266" value="1.00000"/>
  <variable name="x_9_25" index="294" value="1.00000"/>
  <variable name="x_10_0" index="300" value="1.00000"/>
  <variable name="x_11_0" index="330" value="1.00000"/>
  <variable name="x_12_0" index="360" value="1.00000"/>
  <variable name="x_13_16" index="405" value="1.00000"/>
  <variable name="x_14_7" index="427" value="1.00000"/>
  <variable name="x_15_28" index="477" value="1.00000"/>
  <variable name="x_16_0" index="480" value="1.00000"/>
  <variable name="x_17_0" index="510" value="1.00000"/>
  <variable name="x_18_4" index="544" value="1.00000"/>
  <variable name="x_19_10" index="580" value="1.00000"/>
  <variable name="x_20_0" index="600" value="1.00000"/>
  <variable name="x_21_0" index="630" value="1.00000"/>
  <variable name="x_22_0" index="660" value="1.00000"/>
  <variable name="x_23_0" index="690" value="1.00000"/>
  <variable name="x_24_1" index="721" value="1.00000"/>
  <variable name="x_25_0" index="750" value="1.00000"/>
  <variable name="x_26_6" index="786" value="1.00000"/>
  <variable name="x_27_0" index="810" value="1.00000"/>
  <variable name="x_28_0" index="840" value="1.00000"/>
  <variable name="x_29_0" index="870" value="1.00000"/>
  <variable name="x_30_0" index="900" value="1.00000"/>
  <variable name="u_1" index="930" value="25.00000"/>
  <variable name="u_2" index="931" value="60.00000"/>
  <variable name="u_3" index="932" value="42.00000"/>
  <variable name="u_4" index="933" value="60.00000"/>
  <variable name="u_5" index="934" value="60.00000"/>
  <variable name="u_6" index="935" value="57.00000"/>
  <variable name="u_7" index="936" value="29.00000"/>
  <variable name="u_8" index="937" value="48.00000"/>
  <variable name="u_9" index="938" value="52.00000"/>
  <variable name="u_10" index="939" value="60.00000"/>
  <variable name="u_11" index="940" value="58.00000"/>
  <variable name="u_12" index="941" value="60.00000"/>
  <variable name="u_13" index="942" value="35.00000"/>
  <variable name="u_14" index="943" value="13.00000"/>
  <variable name="u_15" index="944" value="10.00000"/>
  <variable name="u_16" index="945" value="60.00000"/>
  <variable name="u_17" index="946" value="60.00000"/>
  <variable name="u_18" index="947" value="59.00000"/>
  <variable name="u_19" index="948" value="56.00000"/>
  <variable name="u_20" index="949" value="60.00000"/>
  <variable name="u_21" index="950" value="60.00000"/>
  <variable name="u_22" index="951" value="40.00000"/>
  <variable name="u_23" index="952" value="60.00000"/>
  <variable name="u_24" index="953" value="4.00000"/>
  <variable name="u_25" index="954" value="57.00000"/>
  <variable name="u_26" index="955" value="23.00000"/>
  <variable name="u_27" index="956" value="60.00000"/>
  <variable name="u_28" index="957" value="60.00000"/>
  <variable name="u_29" index="958" value="60.00000"/>
  <variable name="u_30" index="959" value="59.00000"/>
 </variables>
</CPLEXSolution>
